
Gurobi 12.0.0 (win64) logging started Mon May  4 20:53:46 2026

Set parameter LogFile to value "C:\Users\Asus\Documents\GitHub\logistics-model2\internal-logistics-model2\results\SR_SV_WT\case3\result_SR_SV_WT_case3_P10_eps9999_2026_05_04_20_53.log"
Gurobi Optimizer version 12.0.0 build v12.0.0rc1 (win64 - Windows 10.0 (19045.2))

CPU model: 12th Gen Intel(R) Core(TM) i7-12650H, instruction set [SSE2|AVX|AVX2]
Thread count: 10 physical cores, 16 logical processors, using up to 16 threads

Non-default parameters:
TimeLimit  600
MIPGap  0.01
Presolve  2

Optimize a model with 2752 rows, 823 columns and 13940 nonzeros
Model fingerprint: 0xa086d3cb
Variable types: 138 continuous, 685 integer (660 binary)
Coefficient statistics:
  Matrix range     [1e+00, 5e+02]
  Objective range  [1e-03, 1e+00]
  Bounds range     [1e+00, 3e+01]
  RHS range        [1e+00, 1e+04]
Presolve removed 2515 rows and 742 columns
Presolve time: 0.01s
Presolved: 237 rows, 81 columns, 902 nonzeros
Variable types: 28 continuous, 53 integer (46 binary)
Found heuristic solution: objective 473.1180000
Found heuristic solution: objective 434.1100000
Root relaxation presolve removed 44 rows and 2 columns
Root relaxation presolved: 193 rows, 82 columns, 802 nonzeros


Root relaxation: objective 2.180000e+02, 44 iterations, 0.00 seconds (0.00 work units)

    Nodes    |    Current Node    |     Objective Bounds      |     Work
 Expl Unexpl |  Obj  Depth IntInf | Incumbent    BestBd   Gap | It/Node Time

     0     0  218.00000    0   15  434.11000  218.00000  49.8%     -    0s
H    0     0                     427.1040000  218.00000  49.0%     -    0s
H    0     0                     404.1020000  218.00000  46.1%     -    0s
     0     0  220.59021    0   21  404.10200  220.59021  45.4%     -    0s
     0     0  222.16024    0   18  404.10200  222.16024  45.0%     -    0s
     0     0  222.18663    0   17  404.10200  222.18663  45.0%     -    0s
     0     0  222.18664    0   18  404.10200  222.18664  45.0%     -    0s
     0     0  271.72517    0   28  404.10200  271.72517  32.8%     -    0s
     0     0  271.89579    0   27  404.10200  271.89579  32.7%     -    0s
     0     0  271.90257    0   28  404.10200  271.90257  32.7%     -    0s
     0     0  276.63139    0   26  404.10200  276.63139  31.5%     -    0s
     0     0  277.07220    0   24  404.10200  277.07220  31.4%     -    0s
     0     0  277.07220    0   24  404.10200  277.07220  31.4%     -    0s
     0     0  278.34274    0   30  404.10200  278.34274  31.1%     -    0s
     0     0  278.79959    0   29  404.10200  278.79959  31.0%     -    0s
     0     0  278.84581    0   29  404.10200  278.84581  31.0%     -    0s
     0     0  278.85895    0   30  404.10200  278.85895  31.0%     -    0s
     0     0  279.04952    0   30  404.10200  279.04952  30.9%     -    0s
     0     0  279.15626    0   32  404.10200  279.15626  30.9%     -    0s
     0     0  279.15626    0   32  404.10200  279.15626  30.9%     -    0s
     0     0  279.19849    0   31  404.10200  279.19849  30.9%     -    0s
     0     0  279.20868    0   31  404.10200  279.20868  30.9%     -    0s
     0     0  279.27927    0   31  404.10200  279.27927  30.9%     -    0s
     0     0  279.29913    0   31  404.10200  279.29913  30.9%     -    0s
     0     2  279.29913    0   31  404.10200  279.29913  30.9%     -    0s

Cutting planes:
  Learned: 1
  Gomory: 1
  Implied bound: 19
  Clique: 1
  MIR: 54
  StrongCG: 2
  RLT: 4
  Relax-and-lift: 9
  PSD: 1

Explored 239 nodes (3050 simplex iterations) in 0.10 seconds (0.06 work units)
Thread count was 16 (of 16 available processors)

Solution count 4: 404.102 427.104 434.11 473.118 

Optimal solution found (tolerance 1.00e-02)
Best objective 4.041020000000e+02, best bound 4.041020000000e+02, gap 0.0000%
